p tw 253 500
1 117
1 136
1 187
2 31
2 102
2 208
2 209
3 80
3 81
3 98
3 99
3 199
3 200
4 136
4 137
4 187
4 188
5 176
5 177
5 228
5 229
6 181
6 182
6 230
6 231
7 90
7 91
7 194
7 195
7 242
8 83
8 84
8 99
8 100
9 32
9 60
9 110
9 111
9 128
9 143
9 144
10 180
10 181
10 229
10 230
11 114
11 115
11 170
11 223
11 224
12 82
12 83
12 174
12 175
13 130
13 131
13 185
13 186
13 205
13 206
13 233
13 234
14 129
14 130
14 132
15 85
15 86
15 124
15 125
16 19
16 109
16 203
17 169
17 170
17 221
17 222
18 73
18 74
18 245
18 246
19 121
19 142
20 166
20 167
20 219
20 220
21 177
21 178
21 227
21 228
22 71
22 72
22 96
22 97
22 117
22 118
22 173
22 174
22 243
22 244
22 247
22 248
23 28
23 57
23 70
23 74
23 75
23 246
24 107
24 108
24 140
24 141
24 200
24 201
25 46
25 69
25 148
25 149
25 192
25 193
26 50
26 91
26 195
26 196
27 125
27 126
27 149
27 150
27 191
27 192
28 70
28 75
29 127
29 128
29 182
29 202
29 231
30 88
30 89
30 131
30 132
30 150
30 151
30 238
30 239
31 101
31 102
31 207
31 208
32 120
32 134
32 135
32 141
32 175
32 226
33 92
33 93
33 250
33 251
34 59
34 103
34 104
35 85
35 122
35 123
35 235
36 106
36 107
36 160
36 161
36 198
36 199
36 214
36 215
37 100
37 248
37 249
38 68
38 153
38 154
39 157
39 158
39 212
39 213
40 165
40 166
40 218
40 219
41 78
41 79
41 94
41 95
41 179
41 180
41 236
41 237
41 247
42 116
42 154
42 210
43 104
43 105
43 155
43 156
43 197
43 198
43 211
43 212
44 77
44 78
44 95
44 96
44 158
44 159
44 213
44 214
45 113
45 114
45 151
45 152
45 167
45 168
45 206
45 207
45 220
45 221
46 144
46 145
47 183
47 184
47 232
47 233
48 89
48 90
48 240
48 241
49 76
49 77
49 105
49 106
49 235
49 236
50 101
50 135
50 152
50 153
50 196
51 119
51 120
51 138
51 139
51 172
51 173
51 189
51 190
52 79
52 80
52 97
52 98
52 118
52 119
52 133
52 137
52 138
52 171
52 172
52 188
52 189
52 225
52 226
53 139
53 140
53 190
54 86
54 87
54 112
54 113
54 237
54 238
55 162
55 163
55 216
55 217
56 126
56 147
56 148
57 74
57 93
57 94
57 246
57 253
58 108
58 201
58 202
59 176
59 227
60 71
60 109
60 110
60 142
60 143
60 243
61 84
61 241
61 242
62 63
62 121
62 122
63 123
63 124
63 145
63 146
63 191
64 115
64 116
64 209
64 210
64 224
65 111
65 112
65 163
65 164
65 217
65 218
66 92
66 239
66 240
67 129
67 133
67 134
67 146
67 147
67 183
67 203
67 204
67 232
68 73
68 245
68 252
68 253
69 204
69 205
70 75
71 72
72 244
73 74
76 77
76 127
77 78
78 79
79 80
80 81
81 82
82 83
83 84
85 86
86 87
87 88
88 89
89 90
90 91
92 93
93 94
94 95
95 96
96 97
97 98
98 99
99 100
101 102
103 104
103 197
104 105
105 106
106 107
107 108
109 110
110 111
111 112
112 113
113 114
114 115
115 116
117 118
118 119
119 120
121 122
122 123
123 124
124 125
125 126
127 128
129 130
130 131
131 132
133 134
134 135
136 137
137 138
138 139
139 140
140 141
142 143
143 144
144 145
145 146
146 147
147 148
148 149
149 150
150 151
151 152
152 153
153 154
155 156
155 211
156 157
157 158
158 159
159 160
160 161
161 215
162 163
162 216
163 164
164 165
165 166
166 167
167 168
168 169
169 170
171 172
171 225
172 173
173 174
174 175
176 177
177 178
178 179
179 180
180 181
181 182
183 184
184 185
185 186
186 234
187 188
188 189
189 190
191 192
192 193
193 194
194 195
195 196
197 198
198 199
199 200
200 201
201 202
203 204
204 205
205 206
206 207
207 208
208 209
209 210
211 212
212 213
213 214
214 215
216 217
217 218
218 219
219 220
220 221
221 222
222 223
223 224
225 226
227 228
228 229
229 230
230 231
232 233
233 234
235 236
236 237
237 238
238 239
239 240
240 241
241 242
243 244
245 246
247 248
248 249
249 250
250 251
251 252
252 253
